c nIsolatedPIs 0
c maxPI 32
p cnf 111 238
c gate 33 -14 -30 0
-14 -33 0
-30 -33 0
14 30 33 0
c gate 34 14 30 0
14 -34 0
30 -34 0
-14 -30 34 0
c gate 35 -33 -34 0
-33 -35 0
-34 -35 0
33 34 35 0
c gate 36 16 -32 0
16 -36 0
-32 -36 0
-16 32 36 0
c gate 37 -16 32 0
-16 -37 0
32 -37 0
16 -32 37 0
c gate 38 -36 -37 0
-36 -38 0
-37 -38 0
36 37 38 0
c gate 39 15 31 0
15 -39 0
31 -39 0
-15 -31 39 0
c gate 40 -15 -31 0
-15 -40 0
-31 -40 0
15 31 40 0
c gate 41 -39 -40 0
-39 -41 0
-40 -41 0
39 40 41 0
c gate 42 38 -41 0
38 -42 0
-41 -42 0
-38 41 42 0
c gate 43 -35 42 0
-35 -43 0
42 -43 0
35 -42 43 0
c gate 44 -11 27 0
-11 -44 0
27 -44 0
11 -27 44 0
c gate 45 -8 24 0
-8 -45 0
24 -45 0
8 -24 45 0
c gate 46 7 -23 0
7 -46 0
-23 -46 0
-7 23 46 0
c gate 47 6 -22 0
6 -47 0
-22 -47 0
-6 22 47 0
c gate 48 -5 21 0
-5 -48 0
21 -48 0
5 -21 48 0
c gate 49 -3 19 0
-3 -49 0
19 -49 0
3 -19 49 0
c gate 50 -2 18 0
-2 -50 0
18 -50 0
2 -18 50 0
c gate 51 -1 17 0
-1 -51 0
17 -51 0
1 -17 51 0
c gate 52 -50 -51 0
-50 -52 0
-51 -52 0
50 51 52 0
c gate 53 2 -18 0
2 -53 0
-18 -53 0
-2 18 53 0
c gate 54 3 -19 0
3 -54 0
-19 -54 0
-3 19 54 0
c gate 55 -53 -54 0
-53 -55 0
-54 -55 0
53 54 55 0
c gate 56 -52 55 0
-52 -56 0
55 -56 0
52 -55 56 0
c gate 57 -49 -56 0
-49 -57 0
-56 -57 0
49 56 57 0
c gate 58 -4 20 0
-4 -58 0
20 -58 0
4 -20 58 0
c gate 59 57 -58 0
57 -59 0
-58 -59 0
-57 58 59 0
c gate 60 4 -20 0
4 -60 0
-20 -60 0
-4 20 60 0
c gate 61 -57 60 0
-57 -61 0
60 -61 0
57 -60 61 0
c gate 62 5 -21 0
5 -62 0
-21 -62 0
-5 21 62 0
c gate 63 -61 -62 0
-61 -63 0
-62 -63 0
61 62 63 0
c gate 64 -59 63 0
-59 -64 0
63 -64 0
59 -63 64 0
c gate 65 -48 -64 0
-48 -65 0
-64 -65 0
48 64 65 0
c gate 66 -47 -65 0
-47 -66 0
-65 -66 0
47 65 66 0
c gate 67 -6 22 0
-6 -67 0
22 -67 0
6 -22 67 0
c gate 68 -7 23 0
-7 -68 0
23 -68 0
7 -23 68 0
c gate 69 -67 -68 0
-67 -69 0
-68 -69 0
67 68 69 0
c gate 70 -66 69 0
-66 -70 0
69 -70 0
66 -69 70 0
c gate 71 -46 -70 0
-46 -71 0
-70 -71 0
46 70 71 0
c gate 72 -45 -71 0
-45 -72 0
-71 -72 0
45 71 72 0
c gate 73 8 -24 0
8 -73 0
-24 -73 0
-8 24 73 0
c gate 74 9 -25 0
9 -74 0
-25 -74 0
-9 25 74 0
c gate 75 -73 -74 0
-73 -75 0
-74 -75 0
73 74 75 0
c gate 76 -72 75 0
-72 -76 0
75 -76 0
72 -75 76 0
c gate 77 -10 26 0
-10 -77 0
26 -77 0
10 -26 77 0
c gate 78 -9 25 0
-9 -78 0
25 -78 0
9 -25 78 0
c gate 79 -77 -78 0
-77 -79 0
-78 -79 0
77 78 79 0
c gate 80 -76 79 0
-76 -80 0
79 -80 0
76 -79 80 0
c gate 81 11 -27 0
11 -81 0
-27 -81 0
-11 27 81 0
c gate 82 10 -26 0
10 -82 0
-26 -82 0
-10 26 82 0
c gate 83 -81 -82 0
-81 -83 0
-82 -83 0
81 82 83 0
c gate 84 -80 83 0
-80 -84 0
83 -84 0
80 -83 84 0
c gate 85 -44 -84 0
-44 -85 0
-84 -85 0
44 84 85 0
c gate 86 -46 -68 0
-46 -86 0
-68 -86 0
46 68 86 0
c gate 87 -47 -67 0
-47 -87 0
-67 -87 0
47 67 87 0
c gate 88 -48 -62 0
-48 -88 0
-62 -88 0
48 62 88 0
c gate 89 87 88 0
87 -89 0
88 -89 0
-87 -88 89 0
c gate 90 86 89 0
86 -90 0
89 -90 0
-86 -89 90 0
c gate 91 61 90 0
61 -91 0
90 -91 0
-61 -90 91 0
c gate 92 12 28 0
12 -92 0
28 -92 0
-12 -28 92 0
c gate 93 -12 -28 0
-12 -93 0
-28 -93 0
12 28 93 0
c gate 94 -92 -93 0
-92 -94 0
-93 -94 0
92 93 94 0
c gate 95 13 29 0
13 -95 0
29 -95 0
-13 -29 95 0
c gate 96 -13 -29 0
-13 -96 0
-29 -96 0
13 29 96 0
c gate 97 -95 -96 0
-95 -97 0
-96 -97 0
95 96 97 0
c gate 98 -94 -97 0
-94 -98 0
-97 -98 0
94 97 98 0
c gate 99 -9 -25 0
-9 -99 0
-25 -99 0
9 25 99 0
c gate 100 9 25 0
9 -100 0
25 -100 0
-9 -25 100 0
c gate 101 -99 -100 0
-99 -101 0
-100 -101 0
99 100 101 0
c gate 102 -45 -73 0
-45 -102 0
-73 -102 0
45 73 102 0
c gate 103 -101 102 0
-101 -103 0
102 -103 0
101 -102 103 0
c gate 104 -44 -81 0
-44 -104 0
-81 -104 0
44 81 104 0
c gate 105 -77 -82 0
-77 -105 0
-82 -105 0
77 82 105 0
c gate 106 104 105 0
104 -106 0
105 -106 0
-104 -105 106 0
c gate 107 103 106 0
103 -107 0
106 -107 0
-103 -106 107 0
c gate 108 98 107 0
98 -108 0
107 -108 0
-98 -107 108 0
c gate 109 91 108 0
91 -109 0
108 -109 0
-91 -108 109 0
c gate 110 85 109 0
85 -110 0
109 -110 0
-85 -109 110 0
c gate 111 43 110 0
43 -111 0
110 -111 0
-43 -110 111 0
c PO
111 0
